
Gurobi 11.0.1 (win64) logging started Tue May 14 18:34:28 2024

Set parameter LogFile to value "output/solver_log3.txt"
Gurobi Optimizer version 11.0.1 build v11.0.1rc0 (win64 - Windows 11.0 (22631.2))

CPU model: 11th Gen Intel(R) Core(TM) i7-1165G7 @ 2.80GHz, instruction set [SSE2|AVX|AVX2|AVX512]
Thread count: 4 physical cores, 8 logical processors, using up to 8 threads

Optimize a model with 1308 rows, 451 columns and 23904 nonzeros
Model fingerprint: 0xffb586f3
Variable types: 88 continuous, 363 integer (363 binary)
Coefficient statistics:
  Matrix range     [4e-01, 1e+05]
  Objective range  [1e+00, 1e+02]
  Bounds range     [1e+00, 1e+00]
  RHS range        [1e-02, 1e+05]

User MIP start produced solution with objective 56216.3 (0.00s)
User MIP start produced solution with objective 56216.3 (0.01s)
Loaded user MIP start with objective 56216.3

Presolve removed 200 rows and 204 columns
Presolve time: 0.02s
Presolved: 1108 rows, 247 columns, 22226 nonzeros
Variable types: 81 continuous, 166 integer (164 binary)

Root relaxation: objective 5.691718e+04, 339 iterations, 0.01 seconds (0.03 work units)

    Nodes    |    Current Node    |     Objective Bounds      |     Work
 Expl Unexpl |  Obj  Depth IntInf | Incumbent    BestBd   Gap | It/Node Time

     0     0 56917.1819    0    6 56216.3485 56917.1819  1.25%     -    0s
     0     0 56917.1819    0    8 56216.3485 56917.1819  1.25%     -    0s
     0     0 56917.1819    0    8 56216.3485 56917.1819  1.25%     -    0s
     0     2 56917.1819    0    8 56216.3485 56917.1819  1.25%     -    0s
  1610  1190 56466.0122   36   10 56216.3485 56917.1819  1.25%  67.4    5s
* 3025  1605              41    56526.012240 56917.1819  0.69%  83.4    8s
  3751  1502 56550.3548   44   21 56526.0122 56917.1819  0.69%  82.4   10s
H 3886  1394                    56540.718561 56917.1819  0.67%  83.8   10s
H 3887   364                    56917.181913 56917.1819  0.00%  83.8   10s

Explored 3986 nodes (335807 simplex iterations) in 10.16 seconds (28.20 work units)
Thread count was 8 (of 8 available processors)

Solution count 5: 56917.2 56917.2 56540.7 ... 56216.3

Optimal solution found (tolerance 1.00e-04)
Best objective 5.691718191332e+04, best bound 5.691718191332e+04, gap 0.0000%
